22
case_id=r2_05; role=input; smiles=NCCc1ccc(O)c(O)c1; model=best_model.pt
N  -2.2776131630  0.5573838949  1.8140876293
C  -2.5493500233 -0.4354720116  0.7742075920
C  -1.8471049070 -0.1349109113 -0.5590396523
C  -0.3379612267 -0.1599436849 -0.4765378535
C   0.3431871235 -1.3719171286 -0.2863501608
C   1.7375152111 -1.3995440006 -0.1996521354
C   2.4583754539 -0.2129562944 -0.3052335083
O   3.8223984241 -0.2228819728 -0.2220175862
C   1.7927029133  0.9966581464 -0.4983695149
O   2.5177083015  2.1510071754 -0.6012415290
C   0.4006346166  1.0284572840 -0.5843060017
H  -1.2744501829  0.5671527386  2.0080256462
H  -2.4984889030  1.4889733791  1.4659243822
H  -3.6313254833 -0.4660354853  0.6046787500
H  -2.2594282627 -1.4234439135  1.1486313343
H  -2.1631498337 -0.8741880059 -1.3062748909
H  -2.1858730316  0.8368939161 -0.9407942891
H  -0.2100991309 -2.3053381443 -0.2037106603
H   2.2399864197 -2.3500573635 -0.0508401692
H   4.1238780022 -1.1336606741 -0.0856808126
H   1.9147409201  2.8919045925 -0.7625811696
H  -0.1162833124  1.9719184637 -0.7329254746
