24
case_id=r2_04; role=input; smiles=Cn1cnc2c1c(=O)n(C)c(=O)n2C; model=best_model.pt
C   3.0980408192 -1.2131481171 -0.1933717728
N   2.1551408768 -0.1402585357 -0.0039770752
C   2.4614620209  1.1720098257  0.2426011115
N   1.3757824898  1.9093589783  0.3682851195
C   0.3483250737  1.0319563150  0.1950049996
C   0.7934048176 -0.2342677563 -0.0353449136
C  -0.0752871633 -1.3384757042 -0.2490766048
O   0.3362497985 -2.4761812687 -0.4559275806
N  -1.4260934591 -0.9821931720 -0.1967978776
C  -2.4154627323 -2.0222759247 -0.3998655677
C  -1.9260406494  0.3159034550  0.0389066711
O  -3.1414198875  0.5319527984  0.0665608793
N  -0.9914532900  1.3327898979  0.2371100187
C  -1.4231617451  2.6960844994  0.4856050611
H   2.9284379482 -1.9662475586  0.5801437497
H   2.9465389252 -1.6380845308 -1.1887242794
H   4.1157226562 -0.8229883909 -0.1105743125
H   3.4790046215  1.5342849493  0.3202162087
H  -3.0386822224 -1.7571903467 -1.2602920532
H  -1.9655839205 -3.0022218227 -0.5770748258
H  -3.0565178394 -2.0811526775  0.4859040380
H  -2.5126814842  2.7844653130  0.4908464551
H  -1.0238597393  3.3460752964 -0.2994336784
H  -1.0418651104  3.0198040009  1.4592763186
