12
case_id=r2_03; role=input; smiles=c1ccccc1; model=best_model.pt
C  -1.3577781916 -0.3192535341  0.0074180881
C  -0.9553858638  1.0162557364  0.0014512679
C   0.4023926556  1.3355090618 -0.0059627593
C   1.3577789068  0.3192541599 -0.0074182311
C   0.9553858042 -1.0162547827 -0.0014559994
C  -0.4023922384 -1.3355083466  0.0059679681
H  -2.4156429768 -0.5679920316  0.0131957168
H  -1.6997412443  1.8080359697  0.0025887752
H   0.7159027457  2.3760242462 -0.0106094955
H   2.4156446457  0.5679888725 -0.0132069094
H   1.6997398138 -1.8080364466 -0.0025882225
H  -0.7159040570 -2.3760228157  0.0106198015
