21
case_id=r2_02; role=input; smiles=CC(=O)Oc1ccccc1C(=O)O; model=best_model.pt
C   3.3028974533  0.6541087627  0.2918508351
C   2.0134954453 -0.1002032533  0.1601442844
O   1.9154977798 -1.2200667858 -0.3241299987
O   0.9859856367  0.6744440794  0.6849790215
C  -0.2637235224  0.0629170239  0.5615569353
C  -0.7426007986 -0.5979214311  1.6997290850
C  -1.9900010824 -1.2187184095  1.6695386171
C  -2.7617309093 -1.1710711718  0.5104174018
C  -2.2896950245 -0.4943183362 -0.6181694269
C  -1.0368542671  0.1414454281 -0.6047709584
C  -0.6417599320  0.8560593724 -1.8443844318
O  -1.2651603222  0.8383138180 -2.8920083046
O   0.4776220322  1.5921986103 -1.7401193380
H   3.5265836716  0.8233224750  1.3480044603
H   3.2342429161  1.6036064625 -0.2449525744
H   4.1129570007  0.0653111860 -0.1479455531
H  -0.1409543008 -0.6369907856  2.6037371159
H  -2.3589303493 -1.7424480915  2.5480668545
H  -3.7335491180 -1.6585977077  0.4826810360
H  -2.9101493359 -0.4627274275 -1.5127360821
H   0.5658271313  1.9913362265 -2.6314890385
