12
case_id=r2_03; role=reference; smiles=c1ccccc1; model=best_model.pt
C   1.2099959850 -0.6877260208  0.0000000000
C   1.2005889416  0.7040150166  0.0000000000
C  -0.0094039999  1.3917319775  0.0000000000
C  -1.2099959850  0.6877260208  0.0000000000
C  -1.2005889416 -0.7040150166 -0.0000020000
C   0.0094039999 -1.3917319775  0.0000010000
H   2.1517760754 -1.2230160236 -0.0000000000
H   2.1350469589  1.2519869804 -0.0000030000
H  -0.0167229995  2.4749820232 -0.0000010000
H  -2.1517760754  1.2230160236  0.0000030000
H  -2.1350469589 -1.2519869804 -0.0000000000
H   0.0167239998 -2.4749820232  0.0000010000
