24
case_id=r2_04; role=reference; smiles=Cn1cnc2c1c(=O)n(C)c(=O)n2C; model=best_model.pt
C   3.3074119091 -1.0187369585 -0.0000000000
N   2.2734019756  0.0081399996  0.0000010000
C   2.4506609440  1.3498079777  0.0000010000
N   1.3147289753  2.0347280502 -0.0000000000
C   0.3567759991  1.0757770538 -0.0000010000
C   0.9020509720 -0.1892990023 -0.0000000000
C   0.1181999967 -1.3848619461  0.0000000000
O   0.5447720289 -2.5309619904  0.0000010000
N  -1.2664450407 -1.0887160301 -0.0000010000
C  -2.2086229324 -2.2135291100 -0.0000000000
C  -1.8609850407  0.1880629957 -0.0000010000
O  -3.0716149807  0.3117409945  0.0000020000
N  -0.9997590184  1.2810649872 -0.0000020000
C  -1.5399860144  2.6399860382  0.0000010000
H   3.2144079208 -1.6477040052  0.8837689757
H   3.2144169807 -1.6476939917 -0.8837779760
H   4.2780299187 -0.5260710120  0.0000070000
H   3.4340798855  1.7933590412  0.0000010000
H  -2.8436710835 -2.1680710316 -0.8834760189
H  -1.6239670515 -3.1273870468 -0.0000120000
H  -2.8436551094 -2.1680839062  0.8834879994
H  -2.6222090721  2.5639789104 -0.0000110000
H  -1.1995979548  3.1758420467 -0.8860210180
H  -1.1996159554  3.1758329868  0.8860350251
