22
case_id=r2_05; role=reference; smiles=NCCc1ccc(O)c(O)c1; model=best_model.pt
N  -3.0501959324  0.8677440286  1.2031500340
C  -3.1673650742 -0.2574599981  0.2816079855
C  -2.2201418877 -0.2572570145 -0.9408649802
C  -0.7566620111 -0.3270590007 -0.5777720213
C  -0.1622699946 -1.5344200134 -0.2155700028
C   1.1778559685 -1.5836969614  0.1572979987
C   1.9589899778 -0.4348610044  0.1813170016
O   3.2799611092 -0.4265779853  0.5349010229
C   1.3770689964  0.7867810130 -0.1831720024
O   2.1749899387  1.8963279724 -0.1578329951
C   0.0367720015  0.8237180114 -0.5525490046
H  -2.1130619049  0.9291139841  1.5852349997
H  -3.2464048862  1.7460589409  0.7357869744
H  -4.1995859146 -0.2911730111 -0.0781110004
H  -3.0100040436 -1.1753989458  0.8542299867
H  -2.4814939499 -1.1107820272 -1.5751030445
H  -2.4118421078  0.6425520182 -1.5340000391
H  -0.7418779731 -2.4498660564 -0.2301149964
H   1.6283520460 -2.5327100754  0.4310460091
H   3.5544910431 -1.3237880468  0.7546179891
H   1.6632529497  2.6615839005 -0.4428919852
H  -0.3955459893  1.7777349949 -0.8410590291
