21
case_id=r2_02; role=reference; smiles=CC(=O)Oc1ccccc1C(=O)O; model=best_model.pt
C  -3.3982989788 -0.8091539741 -0.2399140000
C  -2.0204041004 -0.6971120238  0.3441419899
O  -1.7433929443 -0.5056359768  1.4936649799
O  -1.0780529976 -0.8583599925 -0.6450060010
C   0.2671389878 -0.7253680229 -0.3238109946
C   1.0121339560 -1.8968230486 -0.3020839989
C   2.3763849735 -1.8551590443 -0.0512389988
C   3.0014929771 -0.6345490217  0.1849379987
C   2.2553520203  0.5316439867  0.1620050073
C   0.8789240122  0.5163999796 -0.0992190018
C   0.2077780068  1.8472130299 -0.1123860031
O   0.7502940297  2.8739619255  0.2207989991
O  -1.0723340511  1.8382790089 -0.5571290255
H  -3.5001559258 -1.7408620119 -0.7976880074
H  -3.5579159260  0.0124509996 -0.9401260018
H  -4.1344909668 -0.7660989761  0.5581619740
H   0.5038059950 -2.8344359398 -0.4842340052
H   2.9473800659 -2.7752039433 -0.0372660011
H   4.0642552376 -0.5927659869  0.3852620125
H   2.7200460434  1.4910329580  0.3444170058
H  -1.3780499697  2.7573719025 -0.5017520189
