9
 energy: -11.394338679964 gnorm: 0.000486241698 xtb: 6.7.1 (edcfbbe)
C            0.83950799609579        0.36696536396495       -0.13287944431233
C           -0.38763954746705       -0.41732026114777       -0.58649756653246
O           -1.58761697135127        0.09079038118479       -0.05303189163645
H            0.72974332724144        1.41643012701337       -0.39549707409200
H            0.96415154005257        0.28990428486318        0.94655181222507
H            1.73100106411372       -0.02556018198158       -0.61403109253516
H           -0.27027539053069       -1.47828753050251       -0.31860238691928
H           -0.50202108458109       -0.34739328521263       -1.67057409561339
H           -1.51685096347342        0.10447113531819        0.90831621191600
