6
 energy: -6.271260123348 gnorm: 0.000352591305 xtb: 6.7.1 (edcfbbe)
C            0.64884351372436        0.09974881379289       -0.04689473586662
C           -0.64884305173020       -0.09975086449964        0.04689429598116
H            1.30479007801617        0.00592611222671        0.80304820416438
H            1.12054285491019        0.36693305616413       -0.97833659495954
H           -1.30479018087375       -0.00592577255147       -0.80304793115329
H           -1.12054321414676       -0.36693135673263        0.97833676183391
