21
 energy: -39.629331300792 gnorm: 0.000477109693 xtb: 6.7.1 (edcfbbe)
C            3.28026858389478        0.72388464972111        0.20343428669711
C            1.99735876384646       -0.01111113151266       -0.06336710280208
O            1.83241001938081       -0.86532384956691       -0.88764679875118
O            1.03780615389747        0.41342602847003        0.78713894553113
C           -0.25033268071876       -0.06998384242847        0.65190975050951
C           -0.81798909458417       -0.67443463711893        1.76570677214671
C           -2.10512574650446       -1.17537357277219        1.70976745926224
C           -2.83122254404605       -1.09579109543197        0.53150879406814
C           -2.27062099883101       -0.49554695460032       -0.57706011345227
C           -0.98311978906056        0.03961675293500       -0.53280282417918
C           -0.49260544610573        0.69833853802710       -1.76836364729346
O           -0.95147798047643        0.49417873041577       -2.86206080037872
O            0.47919367059896        1.60329387859445       -1.56668042236578
H            3.49307767516379        0.72214971210893        1.26889776539606
H            3.16137351527631        1.75634532465233       -0.11813745564445
H            4.09057281819264        0.25777007776011       -0.34810035397093
H           -0.23143143041190       -0.74599446489321        2.66863621495669
H           -2.53500959376327       -1.64049522449126        2.58388144780048
H           -3.82974593464786       -1.50135579240532        0.48000058483563
H           -2.81371743986418       -0.41810741059624       -1.50666724712618
H            0.74033758326312        1.98451432793269       -2.41999531483997
