8
 energy: -7.336370572214 gnorm: 0.000323111665 xtb: 6.7.1 (edcfbbe)
C            0.75412690180973       -0.10034131368616       -0.00979414909419
C           -0.75412685710371        0.10034129535766        0.00979414267984
H            1.26751018641220        0.83809142932850        0.18721754455270
H            1.05417055893385       -0.82007256316653        0.74848859401340
H            1.07824977480230       -0.47040086287874       -0.97986235658674
H           -1.07824976075080        0.47040123657975        0.97986215907757
H           -1.05417058990108        0.82007228016294       -0.74848886568080
H           -1.26751021420250       -0.83809153149741       -0.18721710066178
