12
 energy: -15.879640656511 gnorm: 0.000042839518 xtb: 6.7.1 (edcfbbe)
C           -1.34781888904478       -0.31691170678224        0.00736615812927
C           -0.94837804794860        1.00880130524192        0.00144427973990
C            0.39944090864069        1.32571298329003       -0.00592235518948
C            1.34781890847655        0.31691169242742       -0.00736644342622
C            0.94837801053502       -1.00880127920474       -0.00144382033134
C           -0.39944082540588       -1.32571295916495        0.00592209164420
H           -2.39957461907525       -0.56421037789299        0.01311300759503
H           -1.68843438884008        1.79600844071167        0.00256979797101
H            0.71114016424571        2.36021866168494       -0.01054290134245
H            2.39957464790711        0.56421033189178       -0.01311273291193
H            1.68843440265113       -1.79600841137720       -0.00256995185075
H           -0.71114027224162       -2.36021859162564        0.01054287037277
