22
 energy: -33.776131053745 gnorm: 0.000437900378 xtb: 6.7.1 (edcfbbe)
N           -2.14638847157847        0.72536617476421        1.71263559333279
C           -2.47492029226527       -0.36135286762119        0.81381443635246
C           -1.86530396510052       -0.24581723811277       -0.60277790342834
C           -0.36669789578714       -0.24254339692741       -0.53463636016594
C            0.33953314886482       -1.42795917233048       -0.40568213604976
C            1.71810802415261       -1.41457077135724       -0.28213957637828
C            2.42486227612322       -0.22289590411342       -0.27888762767256
O            3.77969950797078       -0.17491995160820       -0.15806268676868
C            1.72113244355584        0.98400846770006       -0.40764495960316
O            2.42569634958384        2.14822133222715       -0.40567853995128
C            0.34160504861866        0.95433944955861       -0.53033744136580
H           -1.13995753467682        0.78275405401577        1.83369402271204
H           -2.46122650002643        1.60942170877351        1.32528585790638
H           -3.56453636952276       -0.40711079426073        0.73129893209634
H           -2.12645894780869       -1.28779312411218        1.27812228971391
H           -2.21266374907520       -1.09131120083661       -1.19864737922331
H           -2.22410614531523        0.67479612773627       -1.06963849851450
H           -0.18712608093792       -2.37029269700844       -0.40509471713305
H            2.26019727207149       -2.34606095782304       -0.18561447504157
H            4.12697167578883       -1.07150371535421       -0.08315270497559
H            1.82115261440791        2.89228652130489       -0.51174090427224
H           -0.18957248354379        1.89293795528577       -0.63511529596979
