24
 energy: -42.153937218014 gnorm: 0.000423992211 xtb: 6.7.1 (edcfbbe)
C            3.10199493778970       -1.21645739420061       -0.19394490326847
N            2.17912230309168       -0.13507900740451       -0.00277210596644
C            2.44572881657100        1.15972647626632        0.24015999643968
N            1.36875180774310        1.90583386234419        0.36755842793274
C            0.33908184000960        1.04772593187441        0.19783550371723
C            0.80747034822350       -0.23714690900036       -0.03573661253784
C           -0.06379124914316       -1.35196951834066       -0.25146244087031
O            0.26250113478215       -2.50461230328463       -0.46195644085323
N           -1.40288449954218       -0.95475742331325       -0.19146966096811
C           -2.41432583631200       -1.97998451867094       -0.39200739706243
C           -1.90554617516074        0.31988541724219        0.03985425708666
O           -3.09936949995641        0.52421096724624        0.06555027563864
N           -0.98934281286918        1.33207653976655        0.23699995942540
C           -1.43896088966758        2.68453045753299        0.48330160341515
H            2.93208642989656       -1.98842728670527        0.55797758374263
H            2.94983326912278       -1.66675324733912       -1.17591970069930
H            4.12026260270502       -0.84069502810761       -0.11381122873069
H            3.44231744968386        1.54566007310309        0.32194925274619
H           -3.03411213547863       -1.72439031364658       -1.25092811742183
H           -1.89797761210068       -2.92192733612740       -0.56148456807762
H           -3.05188902128380       -2.04719263381927        0.48901744621334
H           -2.52686799865681        2.68028507904799        0.47137683268332
H           -1.05311857776659        3.34641435430220       -0.29158170077118
H           -1.07096382698120        3.02304328463403        1.45149382748645
