12
case_id=r2_03; role=output; smiles=c1ccccc1; model=best_model.pt
C  -1.3546335697 -0.3203960061 -0.0023160805
C  -0.9555526376  1.0126771927 -0.0126623670
C   0.3990495503  1.3333778381 -0.0101956055
C   1.3537951708  0.3204352856  0.0022337167
C   0.9542636871 -1.0121943951  0.0123691373
C  -0.3990582824 -1.3334228992  0.0096146399
H  -2.4078147411 -0.5703607798 -0.0043251431
H  -1.6989212036  1.8015909195 -0.0215479098
H   0.7099649310  2.3710763454 -0.0178728364
H   2.4095046520  0.5698549747  0.0047495002
H   1.6993849277 -1.8018076420  0.0224020574
H  -0.7099823952 -2.3708307743  0.0175508671
