21
case_id=r2_02; role=output; smiles=CC(=O)Oc1ccccc1C(=O)O; model=best_model.pt
C   3.3037598133  0.7562746406  0.3662761152
C   2.0679836273 -0.0612935722  0.1372068077
O   1.9967988729 -1.1002500057 -0.4583371580
O   0.9870845079  0.5480153561  0.7285693884
C  -0.2747063041 -0.0168860853  0.5767995119
C  -0.8101549745 -0.6310985088  1.7008528709
C  -2.0883104801 -1.1702877283  1.6616578102
C  -2.8352596760 -1.1016089916  0.4904039204
C  -2.2971858978 -0.4880556762 -0.6280047297
C  -1.0141348839  0.0730703026 -0.6110990644
C  -0.5736030340  0.7180500031 -1.8819851875
O  -1.1885200739  0.6465418935 -2.9147670269
O   0.5836686492  1.4213927984 -1.7912487984
H   3.4350368977  0.9562234879  1.4301314354
H   3.1957781315  1.7207018137 -0.1369149089
H   4.1683697701  0.2264520228 -0.0264992341
H  -0.2091710716 -0.6789674163  2.5992259979
H  -2.4991598129 -1.6429978609  2.5426466465
H  -3.8319787979 -1.5219943523  0.4497461915
H  -2.8630208969 -0.4263631403 -1.5515605211
H   0.7467255592  1.7730808258 -2.6831002235
