24
case_id=r2_04; role=output; smiles=Cn1cnc2c1c(=O)n(C)c(=O)n2C; model=best_model.pt
C   3.1401572227 -1.2199001312 -0.2198811322
N   2.1797239780 -0.1406304240 -0.0173293967
C   2.4521288872  1.1610770226  0.2301456332
N   1.3675189018  1.9119944572  0.3677521646
C   0.3437924087  1.0402899981  0.1984909326
C   0.7981423140 -0.2378455549 -0.0419509932
C  -0.0681590140 -1.3547700644 -0.2570572495
O   0.2749103904 -2.5084183216 -0.4737172127
N  -1.4284636974 -0.9666436315 -0.1891414374
C  -2.4505569935 -2.0041058064 -0.3896707296
C  -1.9311307669  0.3256147802  0.0541234091
O  -3.1311926842  0.5315570235  0.0877584964
N  -0.9948644638  1.3366348743  0.2483735383
C  -1.4389684200  2.7070789337  0.5085299015
H   2.9997014999 -1.9941189289  0.5338176489
H   3.0062167645 -1.6655982733 -1.2025657892
H   4.1431674957 -0.8067935705 -0.1356813312
H   3.4628894329  1.5285241604  0.3036802411
H  -3.0753433704 -1.7492743731 -1.2430031300
H  -1.9297277927 -2.9396235943 -0.5650725961
H  -3.0808479786 -2.0771334171  0.4919069707
H  -2.5211627483  2.7069094181  0.5039503574
H  -1.0561844110  3.3714706898 -0.2651248574
H  -1.0617461205  3.0437042713  1.4716666937
