22
case_id=r2_05; role=output; smiles=NCCc1ccc(O)c(O)c1; model=best_model.pt
N  -2.3029642105  0.7620816827  1.7280360460
C  -2.5512807369 -0.3152037859  0.7786558867
C  -1.8471347094 -0.2139809430 -0.5930768251
C  -0.3413591981 -0.2375229001 -0.5085825920
C   0.3498153687 -1.4352066517 -0.3322730660
C   1.7363610268 -1.4451446533 -0.2141916156
C   2.4693965912 -0.2655529082 -0.2660292983
O   3.8331742287 -0.2176520228 -0.1600230336
C   1.7900846004  0.9460437298 -0.4463843703
O   2.5413150787  2.0871043205 -0.5022310615
C   0.4045281410  0.9438352585 -0.5618678927
H  -1.3150448799  0.8430421352  1.9339350462
H  -2.6119952202  1.6541266441  1.3560155630
H  -3.6292786598 -0.3766469955  0.6142151952
H  -2.2596540451 -1.2526730299  1.2568937540
H  -2.1928930283 -1.0410916805 -1.2177766562
H  -2.1755225658  0.7067791224 -1.0864813328
H  -0.1912203729 -2.3756682873 -0.2950542867
H   2.2617936134 -2.3865709305 -0.0832488164
H   4.1750574112 -1.1136820316 -0.0456255153
H   1.9621371031  2.8418779373 -0.6433246136
H  -0.1053153053  1.8917059898 -0.7115806937
